
Gurobi 12.0.2 (win64) logging started Thu Jun  5 10:50:23 2025

Set parameter LogFile to value "C:\Ioana\_uni\honours\slp\algorithm\Main_files\results\others\prox_tubules\Task_027_Sample004_irr_gurobi.log"
Gurobi Optimizer version 12.0.2 build v12.0.2rc0 (win64 - Windows 11.0 (26100.2))

CPU model: Intel(R) Core(TM) Ultra 5 125H, instruction set [SSE2|AVX|AVX2]
Thread count: 14 physical cores, 18 logical processors, using up to 18 threads

Non-default parameters:
TimeLimit  2200

Optimize a model with 47658 rows, 34811 columns and 147858 nonzeros
Model fingerprint: 0x106e8b80
Variable types: 17417 continuous, 17394 integer (17394 binary)
Coefficient statistics:
  Matrix range     [1e-04, 8e+04]
  Objective range  [3e-05, 1e+01]
  Bounds range     [1e+00, 1e+03]
  RHS range        [1e+00, 1e+00]
Presolve removed 31252 rows and 21851 columns
Presolve time: 0.31s
Presolved: 16406 rows, 12960 columns, 54591 nonzeros
Variable types: 6413 continuous, 6547 integer (6547 binary)

Root relaxation: objective 1.876183e-01, 2774 iterations, 0.24 seconds (0.49 work units)

    Nodes    |    Current Node    |     Objective Bounds      |     Work
 Expl Unexpl |  Obj  Depth IntInf | Incumbent    BestBd   Gap | It/Node Time

     0     0    0.18762    0    5          -    0.18762      -     -    0s
H    0     0                       1.1070243    0.18762  83.1%     -    0s
     0     0    1.06306    0    9    1.10702    1.06306  3.97%     -    1s
     0     0    1.06306    0   11    1.10702    1.06306  3.97%     -    1s
     0     0    1.06306    0   14    1.10702    1.06306  3.97%     -    1s
     0     0    1.06446    0    6    1.10702    1.06446  3.85%     -    1s
     0     0    1.07928    0    5    1.10702    1.07928  2.51%     -    1s
     0     0    1.08573    0   10    1.10702    1.08573  1.92%     -    1s
     0     0    1.08573    0    8    1.10702    1.08573  1.92%     -    1s
     0     0    1.09174    0   12    1.10702    1.09174  1.38%     -    1s
     0     0    1.09863    0    4    1.10702    1.09863  0.76%     -    1s

Cutting planes:
  Learned: 1
  Gomory: 2
  Cover: 7
  Implied bound: 3
  Clique: 1
  MIR: 9
  Flow cover: 17
  Flow path: 2
  Network: 5
  Relax-and-lift: 1

Explored 1 nodes (4778 simplex iterations) in 1.73 seconds (2.00 work units)
Thread count was 18 (of 18 available processors)

Solution count 1: 1.10702 

Optimal solution found (tolerance 1.00e-04)
Best objective 1.107024328268e+00, best bound 1.107024328268e+00, gap 0.0000%
